200
100
100
100
99
99
98
98
97
97
97
96
96
96
95
95
95
95
94
94
94
93
93
92
91
91
90
89
89
89
89
88
88
87
87
87
87
86
86
86
85
85
85
84
84
83
83
82
82
82
81
81
81
81
80
80
79
79
79
78
77
77
77
76
76
76
76
74
73
73
73
73
73
73
73
73
72
72
72
72
71
71
70
70
70
70
70
68
68
68
68
67
66
66
66
66
66
65
64
63
63
63
62
61
61
61
61
61
60
60
59
59
59
58
58
57
57
57
56
56
56
55
54
54
53
53
53
52
52
51
50
50
49
49
49
48
47
47
47
46
45
45
44
44
43
43
43
43
43
42
42
42
42
41
41
41
41
40
40
39
39
38
37
36
36
35
35
34
34
34
33
33
33
32
30
30
30
29
29
28
28
28
28
28
27
27
27
26
25
25
24
24
23
23
23
22
22
22
21
21
20
20
